RT is False
Default write of storage_offers_DA.csv just to have a file (but constraint should be inactive)
Reading model...
...model read.
creating competitive generators file...
...competitive generators recorded.
Loading data...
.. day-ahead data with real-time VRE data read.
Compiling instance...
...instance created.
Creating Offer Mitigation (model will solve as dispatch if TRUE)...
NOTE: storage offers will not be mitigated
...storage offer mitigation file created
Converting model to MPEC...
...converted
NOTE: initial MIP solve with only storage competitive to get feasible solution
Solving...

Welcome to IBM(R) ILOG(R) CPLEX(R) Interactive Optimizer 12.9.0.0
  with Simplex, Mixed Integer & Barrier Optimizers
5725-A06 5725-A29 5724-Y48 5724-Y49 5724-Y54 5724-Y55 5655-Y21
Copyright IBM Corp. 1988, 2019.  All Rights Reserved.

Type 'help' for a list of available commands.
Type 'help' followed by a command name for more
information on commands.

CPLEX> Logfile 'cplex.log' closed.
Logfile 'C:\Users\llavin\Desktop\test826\logs\tmpg3la2ap9.cplex.log' open.
CPLEX> New value for parallel optimization mode: -1
CPLEX> New value for emphasis for MIP optimization: 1
CPLEX> New value for mixed integer optimality gap tolerance: 0.01
CPLEX> New value for integrality tolerance: 1e-12
CPLEX> New value for deterministic time limit in ticks: 75000
CPLEX> Problem 'C:\Users\llavin\Desktop\test826\logs\tmp9o8nu3ut.pyomo.lp' read.
Read time = 0.22 sec. (13.92 ticks)
CPLEX> Problem name         : C:\Users\llavin\Desktop\test826\logs\tmp9o8nu3ut.pyomo.lp
Objective sense      : Maximize
Variables            :   53809  [Nneg: 1,  Box: 22004,  Free: 4464,
                                 Binary: 27340]
Objective nonzeros   :    9029
Linear constraints   :  123253  [Less: 41346,  Greater: 59096,  Equal: 22811]
  Nonzeros           :  293217
  RHS nonzeros       :   67491

Variables            : Min LB: -5000.000        Max UB: 1000000.       
Objective nonzeros   : Min   : 0.4000000        Max   : 2500.000       
Linear constraints   :
  Nonzeros           : Min   : 0.4000000        Max   : 1000000.       
  RHS nonzeros       : Min   : 0.4000000        Max   : 1000000.       
CPLEX> CPXPARAM_Parallel                                -1
CPXPARAM_Emphasis_MIP                            1
CPXPARAM_DetTimeLimit                            75000
CPXPARAM_MIP_Tolerances_MIPGap                   0.01
CPXPARAM_MIP_Tolerances_Integrality              9.9999999999999998e-13
Tried aggregator 4 times.
MIP Presolve eliminated 88768 rows and 19071 columns.
MIP Presolve added 3371 rows and 0 columns.
MIP Presolve modified 24755 coefficients.
Aggregator did 12960 substitutions.
Reduced MIP has 24896 rows, 21222 columns, and 71624 nonzeros.
Reduced MIP has 8385 binaries, 0 generals, 0 SOSs, and 0 indicators.
Presolve time = 0.33 sec. (192.32 ticks)
Probing fixed 397 vars, tightened 5410 bounds.
Probing time = 0.06 sec. (19.51 ticks)
Tried aggregator 2 times.
MIP Presolve eliminated 893 rows and 794 columns.
MIP Presolve modified 3035 coefficients.
Aggregator did 35 substitutions.
Reduced MIP has 23968 rows, 20393 columns, and 68939 nonzeros.
Reduced MIP has 7988 binaries, 0 generals, 0 SOSs, and 0 indicators.
Presolve time = 0.11 sec. (87.86 ticks)
Probing fixed 0 vars, tightened 240 bounds.
Probing time = 0.13 sec. (23.66 ticks)
Clique table members: 43195.
MIP emphasis: integer feasibility.
MIP search method: dynamic search.
Parallel mode: opportunistic, using up to 32 threads.
Root relaxation solution time = 0.50 sec. (751.76 ticks)

        Nodes                                         Cuts/
   Node  Left     Objective  IInf  Best Integer    Best Bound    ItCnt     Gap

      0     0     3034.1950   216                   3034.1950     6437         
      0    13     1840.5840     3                 Impl Bds: 2     6484         
Elapsed time = 3.81 sec. (2173.14 ticks, tree = 0.02 MB, solutions = 5)
*     2    30      integral     0     2694.3064     3034.1950     6587   12.62%
    272    75     2981.3963     3     2984.0478     3017.6428     7158    1.13%

Cover cuts applied:  3
Implied bound cuts applied:  6

Root node processing (before b&c):
  Real time             =    2.63 sec. (2145.54 ticks)
Parallel b&c, 32 threads:
  Real time             =    2.84 sec. (304.55 ticks)
  Sync time (average)   =    1.42 sec.
  Wait time (average)   =    0.00 sec.
                          ------------
Total (root+branch&cut) =    5.47 sec. (2450.09 ticks)

Solution pool: 11 solutions saved.

MIP - Integer optimal, tolerance (0.01/1e-06):  Objective =  2.9840478470e+03
Current MIP best bound =  3.0117365654e+03 (gap = 27.6887, 0.93%)
Solution time =    5.48 sec.  Iterations = 7684  Nodes = 278 (80)
Deterministic time = 2450.25 ticks  (446.80 ticks/sec)

CPLEX> Incumbent solution written to file 'C:\Users\llavin\Desktop\test826\logs\tmphtd9qvu8.cplex.sol'.
CPLEX> NOTE: no warmstart specified for MIP iteration, default behavior is true
NOTE: resolving with all competitive generators using storage-only solution to warmstart
Solving...

Welcome to IBM(R) ILOG(R) CPLEX(R) Interactive Optimizer 12.9.0.0
  with Simplex, Mixed Integer & Barrier Optimizers
5725-A06 5725-A29 5724-Y48 5724-Y49 5724-Y54 5724-Y55 5655-Y21
Copyright IBM Corp. 1988, 2019.  All Rights Reserved.

Type 'help' for a list of available commands.
Type 'help' followed by a command name for more
information on commands.

CPLEX> Logfile 'cplex.log' closed.
Logfile 'C:\Users\llavin\Desktop\test826\logs\tmpavzzmvn2.cplex.log' open.
CPLEX> New value for parallel optimization mode: -1
CPLEX> New value for emphasis for MIP optimization: 1
CPLEX> New value for mixed integer optimality gap tolerance: 0.01
CPLEX> New value for integrality tolerance: 1e-12
CPLEX> New value for deterministic time limit in ticks: 75000
CPLEX> Problem 'C:\Users\llavin\Desktop\test826\logs\tmpzyk_ojum.pyomo.lp' read.
Read time = 0.22 sec. (13.94 ticks)
CPLEX> MIP start file 'C:\Users\llavin\Desktop\test826\logs\tmpqmiz85t7.cplex.mst' read.
CPLEX> Problem name         : C:\Users\llavin\Desktop\test826\logs\tmpzyk_ojum.pyomo.lp
Objective sense      : Maximize
Variables            :   54529  [Nneg: 1,  Box: 22724,  Free: 4464,
                                 Binary: 27340]
Objective nonzeros   :    9725
Linear constraints   :  123253  [Less: 41346,  Greater: 59096,  Equal: 22811]
  Nonzeros           :  293217
  RHS nonzeros       :   67491

Variables            : Min LB: -5000.000        Max UB: 1000000.       
Objective nonzeros   : Min   : 0.4000000        Max   : 2500.000       
Linear constraints   :
  Nonzeros           : Min   : 0.4000000        Max   : 1000000.       
  RHS nonzeros       : Min   : 0.4000000        Max   : 1000000.       
CPLEX> CPXPARAM_Parallel                                -1
CPXPARAM_Emphasis_MIP                            1
CPXPARAM_DetTimeLimit                            75000
CPXPARAM_MIP_Tolerances_MIPGap                   0.01
CPXPARAM_MIP_Tolerances_Integrality              9.9999999999999998e-13
Warning:  No solution found from 1 MIP starts.
Retaining values of one MIP start for possible repair.
Tried aggregator 4 times.
MIP Presolve eliminated 88768 rows and 19791 columns.
MIP Presolve added 3371 rows and 0 columns.
MIP Presolve modified 24755 coefficients.
Aggregator did 12960 substitutions.
Reduced MIP has 24896 rows, 21222 columns, and 71624 nonzeros.
Reduced MIP has 8385 binaries, 0 generals, 0 SOSs, and 0 indicators.
Presolve time = 0.31 sec. (192.73 ticks)
Probing fixed 397 vars, tightened 5410 bounds.
Probing time = 0.06 sec. (19.51 ticks)
Tried aggregator 2 times.
MIP Presolve eliminated 893 rows and 794 columns.
MIP Presolve modified 3035 coefficients.
Aggregator did 35 substitutions.
Reduced MIP has 23968 rows, 20393 columns, and 68939 nonzeros.
Reduced MIP has 7988 binaries, 0 generals, 0 SOSs, and 0 indicators.
Presolve time = 0.11 sec. (87.87 ticks)
Probing fixed 0 vars, tightened 240 bounds.
Probing time = 0.14 sec. (23.66 ticks)
Clique table members: 43195.
MIP emphasis: integer feasibility.
MIP search method: dynamic search.
Parallel mode: opportunistic, using up to 32 threads.
Root relaxation solution time = 0.55 sec. (768.50 ticks)

        Nodes                                         Cuts/
   Node  Left     Objective  IInf  Best Integer    Best Bound    ItCnt     Gap

      0     0    49257.4057   252                  49257.4057     6669         
      0     0    47269.9927    47                    Cuts: 59     6759         
      0     0    47045.2972    42                    Cuts: 15     6768         
      0     0    47045.2972    43                   Covers: 1     6770         
Repair heuristic found nothing.
      0    23    infeasible                         Covers: 2     6965         
Elapsed time = 4.19 sec. (2003.67 ticks, tree = 0.02 MB, solutions = 0)
    614   288     9468.9544    50                  45772.7971    11205         
   1053   635    infeasible                        45772.7971    23444         
*  1332   636      integral     0    38698.8848    45772.7971    24117   18.28%

Cover cuts applied:  11
Implied bound cuts applied:  3
Flow cuts applied:  48
Mixed integer rounding cuts applied:  1
Gomory fractional cuts applied:  6

Root node processing (before b&c):
  Real time             =    2.91 sec. (1984.24 ticks)
Parallel b&c, 32 threads:
  Real time             =    4.39 sec. (786.88 ticks)
  Sync time (average)   =    1.10 sec.
  Wait time (average)   =    0.00 sec.
                          ------------
Total (root+branch&cut) =    7.30 sec. (2771.12 ticks)

Solution pool: 1 solution saved.

MIP - Integer optimal, tolerance (0.01/1e-06):  Objective =  3.8698884848e+04
Current MIP best bound =  3.9039354113e+04 (gap = 340.469, 0.88%)
Solution time =    7.34 sec.  Iterations = 37475  Nodes = 1546 (49)
Deterministic time = 2771.27 ticks  (377.35 ticks/sec)

CPLEX> Incumbent solution written to file 'C:\Users\llavin\Desktop\test826\logs\tmps_ez9em2.cplex.sol'.
CPLEX> Exporting results... 
